Si
 1.0000000000000000
     0.0000000000000000    2.7160000000000002    2.7160000000000002
     2.7160000000000002    0.0000000000000000    2.7160000000000002
     2.7160000000000002    2.7160000000000002    0.0000000000000000
 Si 
   2
Cartesian
  0.0000000000000000  0.0000000000000000  0.0000000000000000
  1.3580000000000001  1.3580000000000001  1.3580000000000001
