Si
 1.0000000000000000
     0.0000000000000000    8.1479999999999997    8.1479999999999997
     8.1479999999999997    0.0000000000000000    8.1479999999999997
     8.1479999999999997    8.1479999999999997    0.0000000000000000
 Si 
  54
Cartesian
  0.0000000000000000  0.0000000000000000  0.0000000000000000
  0.0000000000000000  2.7159999999999997  2.7159999999999997
  0.0000000000000000  5.4319999999999995  5.4319999999999995
  2.7159999999999997  0.0000000000000000  2.7159999999999997
  2.7159999999999997  2.7159999999999997  5.4319999999999995
  2.7159999999999997  5.4319999999999995  8.1479999999999997
  5.4319999999999995  0.0000000000000000  5.4319999999999995
  5.4319999999999995  2.7159999999999997  8.1479999999999997
  5.4319999999999995  5.4319999999999995 10.8639999999999990
  2.7159999999999997  2.7159999999999997  0.0000000000000000
  2.7159999999999997  5.4319999999999995  2.7159999999999997
  2.7159999999999997  8.1479999999999997  5.4319999999999995
  5.4319999999999995  2.7159999999999997  2.7159999999999997
  5.4319999999999995  5.4319999999999995  5.4319999999999995
  5.4319999999999995  8.1479999999999997  8.1479999999999997
  8.1479999999999997  2.7159999999999997  5.4319999999999995
  8.1479999999999997  5.4319999999999995  8.1479999999999997
  8.1479999999999997  8.1479999999999997 10.8639999999999990
  5.4319999999999995  5.4319999999999995  0.0000000000000000
  5.4319999999999995  8.1479999999999997  2.7159999999999997
  5.4319999999999995 10.8639999999999990  5.4319999999999995
  8.1479999999999997  5.4319999999999995  2.7159999999999997
  8.1479999999999997  8.1479999999999997  5.4319999999999995
  8.1479999999999997 10.8639999999999990  8.1479999999999997
 10.8639999999999990  5.4319999999999995  5.4319999999999995
 10.8639999999999990  8.1479999999999997  8.1479999999999997
 10.8639999999999990 10.8639999999999990 10.8639999999999990
  1.3579999999999999  1.3579999999999999  1.3579999999999999
  1.3579999999999999  4.0739999999999998  4.0739999999999998
  1.3579999999999999  6.7900000000000000  6.7900000000000000
  4.0739999999999998  1.3579999999999999  4.0739999999999998
  4.0739999999999998  4.0739999999999998  6.7900000000000000
  4.0739999999999998  6.7900000000000000  9.5060000000000002
  6.7900000000000000  1.3579999999999999  6.7900000000000000
  6.7900000000000000  4.0739999999999998  9.5060000000000002
  6.7900000000000000  6.7900000000000000 12.2219999999999995
  4.0739999999999998  4.0739999999999998  1.3579999999999999
  4.0739999999999998  6.7900000000000000  4.0739999999999998
  4.0739999999999998  9.5060000000000002  6.7900000000000000
  6.7900000000000000  4.0739999999999998  4.0739999999999998
  6.7900000000000000  6.7900000000000000  6.7900000000000000
  6.7900000000000000  9.5060000000000002  9.5060000000000002
  9.5060000000000002  4.0739999999999998  6.7900000000000000
  9.5060000000000002  6.7900000000000000  9.5060000000000002
  9.5060000000000002  9.5060000000000002 12.2219999999999995
  6.7900000000000000  6.7900000000000000  1.3579999999999999
  6.7900000000000000  9.5060000000000002  4.0739999999999998
  6.7900000000000000 12.2219999999999995  6.7900000000000000
  9.5060000000000002  6.7900000000000000  4.0739999999999998
  9.5060000000000002  9.5060000000000002  6.7900000000000000
  9.5060000000000002 12.2219999999999995  9.5060000000000002
 12.2219999999999995  6.7900000000000000  6.7900000000000000
 12.2219999999999995  9.5060000000000002  9.5060000000000002
 12.2219999999999995 12.2219999999999995 12.2219999999999995
