units        metal
processors      * * *
boundary p p p
atom_style    atomic
atom_modify map yes

box tilt large
read_data structures/replicated_atoms.lmp

pair_style    tersoff
pair_coeff    * * forcefields/Si.tersoff Si
mass            1 28.06

fix com all momentum 1 linear 1 1 1

print 'calculating dynamical_matrix'
dynamical_matrix all eskm 0.00001 file structures/Dyn.form binary no

print 'calculating third_order'
third_order all eskm 0.00001 file structures/THIRD binary no
