Germanium
   5.752395991099000
   0.0  0.5  0.5
   0.5  0.0  0.5
   0.5  0.5  0.0
   Ge
     2
Direct
  0.0000000000000000  0.0000000000000000  0.0000000000000000
  0.2500000000000000  0.2500000000000000  0.2500000000000000
