Ga2 N2
1.0
   3.1889304000000000    0.0000000000000000    0.0000000000000000
  -1.5944652017623220    2.7616947403529042    0.0000000000000000
   0.0000000000000000    0.0000000000000000    5.1923572499999997
Ga N
2 2
direct
   0.6666666666666661    0.3333333333333330    0.4990837100000000 Ga3+
   0.3333333333333330    0.6666666666666661    0.9990837100000001 Ga3+
   0.6666666666666661    0.3333333333333330    0.8759162900000000 N3-
   0.3333333333333330    0.6666666666666661    0.3759162900000000 N3-
