Silicon                                 
   6.00000000000000     
     0.0000000000000000    0.4555926763139420    0.4555926763139420
     0.4555926763139420    0.0000000000000000    0.4555926763139420
     0.4555926763139420    0.4555926763139420    0.0000000000000000
   Si
     2
Direct
  0.0000000000000000  0.0000000000000000  0.0000000000000000
  0.2500000000000000  0.2500000000000000  0.2500000000000000
 
  0.00000000E+00  0.00000000E+00  0.00000000E+00
  0.00000000E+00  0.00000000E+00  0.00000000E+00
