In Se 
 1.0000000000000000
     4.0100000000000000    0.0000000000000000    0.0000000000000000
    -2.0050000000000000    3.4727618691755983    0.0000000000000000
     0.0000000000000000    0.0000000000000000   50.0000000000000000
   2   2
Cartesian
  0.0000000000000000  2.3151745795661576 26.3901517099999978
  0.0000000000000000  2.3151745795661576 23.6098765099999994
  2.0050000000000000  1.1575872896094406 22.3155633299999998
  2.0050000000000000  1.1575872896094406 27.6844366700000002
