generated by phonopy
   1.0
     3.1807655200000000    0.0000000000000000    0.0000000000000000
    -1.5903827600000000    2.7546237400000000    0.0000000000000000
     0.0000000000000000    0.0000000000000000    5.1826058399999999
N Ga
   2    2
Direct
  0.3333333300000000  0.6666666700000000  0.1241919200000000
  0.6666666700000000  0.3333333300000000  0.6241919200000000
  0.3333333300000000  0.6666666700000000  0.5008080800000000
  0.6666666700000000  0.3333333300000000  0.0008080800000000
