Na Cl 
 1.0000000000000000
     3.9664125084452468    0.0000000000000000    0.0000000000000000
     1.9832062542226234    3.4350139942019426    0.0000000000000000
     1.9832062542226234    1.1450046647339811    3.2385622516945096
 Na  Cl 
   1   1
Cartesian
  0.0000000000000000  0.0000000000000000  0.0000000000000000
  3.9664125084452468  2.2900093294679618  1.6192811258472548
