units        metal
processors      * * *
boundary p p p
atom_style    atomic
atom_modify map yes
# box tilt large
read_data  aSi_512.lmp
pair_style    tersoff
pair_coeff    * * forcefields/Si.tersoff Si
mass            1 28.06
group core id 1:512
neighbor 0.0001 bin
print 'calculating calculate_dynmat'
dynamical_matrix core eskm 0.00001 file fc_aSi512/Dyn.form binary no fold yes
print 'calculating third_order'
third_order core eskm 0.00001 file fc_aSi512/THIRD binary no fold yes