units        metal
processors      * * *
boundary p p p
atom_style    atomic
atom_modify map yes
# box tilt large
read_data  aSi_512.lmp
pair_style    tersoff
pair_coeff    * * forcefields/Si.tersoff Si
mass            1 28.06
print 'calculating dynmat'
dynamical_matrix all eskm 1e-06 file Dyn.form binary no
print 'calculating third_order'
third_order all eskm 1e-06 file THIRD binary no
