Mg  O 
 1.0000000000000000
    -2.1273958935290276    0.0000000000000000    2.1273958935290276
     0.0000000000000000    2.1273958935290276    2.1273958935290276
    -2.1273958935290276    2.1273958935290276    0.0000000000000000
   1   1
Cartesian
  0.0000000000000000  0.0000000000000000   0.0000000000000000
 -1.0636979467645138  1.0636979467645138  -1.0636979467645138
