&CONTROL
   tstress          = .true.
   tprnfor          = .true.
   outdir           = 'qe_at_gamma'
   disk_io          = 'low'
   pseudo_dir       = 'potentials'
/
&SYSTEM
   ecutwfc          = 16.0
   ntyp             = 1
   nat              = 54
   ibrav            = 0
/
&ELECTRONS
   conv_thr         = 1e-10
   mixing_beta      = 0.5
/
&IONS
/
&CELL
/

ATOMIC_SPECIES
Si 28.085 Si.pz-n-kjpaw_psl.0.1.UPF

K_POINTS gamma

CELL_PARAMETERS angstrom
0.00000000000000 8.14650000000000 8.14650000000000
8.14650000000000 0.00000000000000 8.14650000000000
8.14650000000000 8.14650000000000 0.00000000000000

ATOMIC_POSITIONS angstrom
Si -0.0168348697 0.0375632544 -0.0070239219 
Si 1.3171768813 1.3938991442 1.3987128644 
Si 0.0018389456 2.6465723428 2.7040816906 
Si 1.2665658395 4.1051699232 4.0282965067 
Si -0.1236838782 5.4860574720 5.4496381188 
Si 1.3822654172 6.8112068207 6.7634007925 
Si 2.6373754701 -0.0025943117 2.6993650046 
Si 4.0644973543 1.3774216789 3.9851189406 
Si 2.7649385710 2.7331852462 5.3907551293 
Si 4.0604369827 4.1182606478 6.7727519900 
Si 2.6904227123 5.3516278210 8.1103229398 
Si 4.1358731168 6.8605452832 9.4661274878 
Si 5.3507919152 -0.0191423464 5.4651405983 
Si 6.8328177449 1.2827256374 6.8388399718 
Si 5.3277385802 2.7701128508 8.0670550223 
Si 6.7342390963 4.0551631741 9.5522808237 
Si 5.3213161175 5.3922793002 10.8707486775 
Si 6.8098021748 6.8691726870 12.1554364878 
Si 2.6239002114 2.7586047646 0.0354690804 
Si 4.0634434267 4.1196522127 1.3203431671 
Si 2.7332244845 5.4768660446 2.6768549292 
Si 4.0630303800 6.8310729798 4.0837141959 
Si 2.7282706279 8.1197915596 5.4394855585 
Si 4.1213103135 9.4152898440 6.7131144641 
Si 5.4806736297 2.7486196527 2.6659639094 
Si 6.8498113216 4.0221595063 4.1321487532 
Si 5.4264211967 5.4068045928 5.4289190117 
Si 6.7458880912 6.7133679433 6.7322695586 
Si 5.4546159702 8.1230257978 8.1933374395 
Si 6.8024044970 9.4921335141 9.4449982623 
Si 8.2180682957 2.6588663113 5.4155711484 
Si 9.5239300921 4.0071720180 6.8383975868 
Si 8.0965475071 5.4740217248 8.1542463864 
Si 9.6174833844 6.6970374684 9.6687619926 
Si 8.1447568555 8.1018345220 10.9142108369 
Si 9.5054904592 9.4522991182 12.2375783939 
Si 5.4763950521 5.5062648974 -0.0145882344 
Si 6.8224325395 6.7798627850 1.4736831785 
Si 5.5487235148 8.1689874936 2.7467428015 
Si 6.8490965783 9.4078404740 3.9928587067 
Si 5.4612203390 10.8931748108 5.4141757891 
Si 6.7462764721 12.2244687214 6.6957288062 
Si 8.1157520558 5.3806274423 2.7503629177 
Si 9.4870140678 6.8568460795 4.1037255964 
Si 8.1659948869 8.1149468539 5.4714446316 
Si 9.5037630710 9.4614592820 6.8568359367 
Si 8.0491783333 10.8314001504 8.1436533696 
Si 9.5326136487 12.2414056902 9.5288604616 
Si 10.9023098999 5.4230888942 5.4051049170 
Si 12.2039062662 6.8308207165 6.7916436028 
Si 10.8883308826 8.2108688136 8.1354618003 
Si 12.2193807649 9.4411132815 9.6129435995 
Si 10.8774553583 10.8842903117 10.9063726724 
Si 12.1889244275 12.1107212108 12.2703398833 

