In Se 
 1.0000000000000000
     4.0240000000000000    0.0000000000000000    0.0000000000000000
    -2.0120000000000000    3.4848862248285810    0.0000000000000000
     0.0000000000000000    0.0000000000000000   18.0000000000000000
   2   2
Cartesian
 -0.0000000002011999  2.3232574833352166  4.5943752905999995
 -0.0000000002011999  2.3232574833352166  1.7957611080000000
  2.0120000002011995  1.1616287414933641  0.4944959352000000
  2.0120000002011995  1.1616287414933641  5.8953932243999994
