 &input
   fildyn  =  'dyn'
   zasr    =  'crystal', 
   flfrc   =  'mat2R'
 /
