Si
 1.0000000000000000
    -2.69968502148648                     0      2.69968502148648
                    0      2.69968502148648      2.69968502148648
    -2.69968502148648      2.69968502148648                     0
   2
Cartesian
  0.0000000000000000  0.0000000000000000  0.0000000000000000
 -1.34984251074324    1.34984251074324    1.34984251074324
