Mg  O 
 1.0000000000000000
    -2.1126999907517146    0.0000000000000000    2.1126999907517146
     0.0000000000000000    2.1126999907517146    2.1126999907517146
    -2.1126999907517146    2.1126999907517146    0.0000000000000000
   1   1
Cartesian
  0.0000000000000000  0.0000000000000000  0.0000000000000000
 -1.0563499953758573  1.0563499953758573 -1.0563499953758573
