Mg  O 
 1.0000000000000000
    -2.2515388494053226    0.0000000000000000    2.2515388494053226
     0.0000000000000000    2.2515388494053226    2.2515388494053226
    -2.2515388494053226    2.2515388494053226    0.0000000000000000
   1   1
Cartesian
  0.0000000000000000   0.0000000000000000   0.0000000000000000
  2.2515388494053226   2.2515388494053226   2.2515388494053226
